NAME : star100.tour
COMMENT : Lenght 1803.15
TYPE : TOUR
DIMENSION : 100
TOUR_SECTION
1
4
2
3
5
8
24
42
17
10
29
41
39
36
57
69
77
75
98
74
88
96
99
100
67
76
92
87
47
65
45
91
97
72
84
59
94
85
71
53
48
33
15
14
13
12
25
44
18
31
19
20
9
43
55
58
27
62
23
7
16
22
73
52
82
79
61
40
38
89
93
95
50
54
34
21
28
32
46
60
68
56
90
70
64
83
78
30
26
37
63
66
81
80
86
51
49
35
11
6
-1
EOF
